\* Problem: steiner *\

Minimize
 obj: + 5.99082612991333 x1i5 + 99999 x1i6 + 99999 x2i5
 + 6.04648685455322 x2i6 + 99999 x3i5 + 6.04648685455322 x3i6
 + 5.99082612991333 x4i5 + 99999 x4i6 + 3.29999995231628 x5i6

Subject To
 p1: 0 x1i5 = 1
 p2: 0 x1i5 = 1
 p3: 0 x1i5 = 1
 p4: 0 x1i5 = 1
 q5: 0 x1i5 = 3
 q6: 0 x1i5 = 3

Bounds
 0 <= x1i5 <= 1
 0 <= x1i6 <= 1
 0 <= x2i5 <= 1
 0 <= x2i6 <= 1
 0 <= x3i5 <= 1
 0 <= x3i6 <= 1
 0 <= x4i5 <= 1
 0 <= x4i6 <= 1
 0 <= x5i6 <= 1

Generals
 x1i5
 x1i6
 x2i5
 x2i6
 x3i5
 x3i6
 x4i5
 x4i6
 x5i6

End
